
Gurobi 10.0.1 (win64) logging started Sat Sep  9 15:28:43 2023

Set parameter LogFile to value "results-heuristic-start//log/URT_11_makespan.log"
Gurobi Optimizer version 10.0.1 build v10.0.1rc0 (win64)

CPU model: AMD Ryzen 7 3700X 8-Core Processor, instruction set [SSE2|AVX|AVX2]
Thread count: 8 physical cores, 16 logical processors, using up to 16 threads

Optimize a model with 266 rows, 286 columns and 1001 nonzeros
Model fingerprint: 0xdc8f0cec
Variable types: 30 continuous, 256 integer (255 binary)
Coefficient statistics:
  Matrix range     [1e+00, 1e+06]
  Objective range  [1e+00, 1e+00]
  Bounds range     [1e+00, 1e+00]
  RHS range        [1e+00, 3e+06]

Warning: Completing partial solution with 241 unfixed non-continuous variables out of 256
User MIP start produced solution with objective 1010 (0.00s)
Loaded user MIP start with objective 1010

Presolve removed 55 rows and 170 columns
Presolve time: 0.02s
Presolved: 211 rows, 116 columns, 912 nonzeros
Variable types: 30 continuous, 86 integer (85 binary)
Found heuristic solution: objective 1009.0000000

Root relaxation: objective 4.300000e+01, 48 iterations, 0.00 seconds (0.00 work units)

    Nodes    |    Current Node    |     Objective Bounds      |     Work
 Expl Unexpl |  Obj  Depth IntInf | Incumbent    BestBd   Gap | It/Node Time

     0     0   43.00000    0    9 1009.00000   43.00000  95.7%     -    0s
H    0     0                     134.0000000   43.00000  67.9%     -    0s
H    0     0                     133.0000000   43.00000  67.7%     -    0s
H    0     0                     131.0000000   43.00000  67.2%     -    0s
H    0     0                     126.0000000   43.00000  65.9%     -    0s
H    0     0                     124.0000000   43.00001  65.3%     -    0s
     0     0   43.00001    0   17  124.00000   43.00001  65.3%     -    0s
     0     0   45.12546    0    7  124.00000   45.12546  63.6%     -    0s
H    0     0                     123.0000000   45.12546  63.3%     -    0s
H    0     0                     122.0000000   45.12546  63.0%     -    0s
H    0     0                     121.0000000   45.12546  62.7%     -    0s
H    0     0                     108.0000000   45.12546  58.2%     -    0s
     0     0   46.00001    0   11  108.00000   46.00001  57.4%     -    0s
     0     0   46.00001    0   13  108.00000   46.00001  57.4%     -    0s
     0     0   46.00001    0   18  108.00000   46.00001  57.4%     -    0s
     0     0   46.00001    0   18  108.00000   46.00001  57.4%     -    0s
     0     0   46.00001    0   18  108.00000   46.00001  57.4%     -    0s
     0     0   46.57729    0   19  108.00000   46.57729  56.9%     -    0s
H    0     0                      97.0000000   46.57729  52.0%     -    0s
H    0     0                      94.0000000   46.57729  50.4%     -    0s
     0     0   46.73951    0   20   94.00000   46.73951  50.3%     -    0s
     0     0   46.73951    0   20   94.00000   46.73951  50.3%     -    0s
     0     0   46.93614    0   22   94.00000   46.93614  50.1%     -    0s
     0     0   47.13695    0   24   94.00000   47.13695  49.9%     -    0s
     0     0   47.13695    0   20   94.00000   47.13695  49.9%     -    0s
     0     0   47.50733    0   23   94.00000   47.50733  49.5%     -    0s
     0     0   47.54323    0   24   94.00000   47.54323  49.4%     -    0s
     0     0   47.55314    0   22   94.00000   47.55314  49.4%     -    0s
     0     0   47.55314    0   23   94.00000   47.55314  49.4%     -    0s
     0     0   47.77969    0   15   94.00000   47.77969  49.2%     -    0s
     0     0   48.11730    0   21   94.00000   48.11730  48.8%     -    0s
     0     0   48.12124    0   21   94.00000   48.12124  48.8%     -    0s
     0     0   48.12124    0   22   94.00000   48.12124  48.8%     -    0s
     0     0   48.12124    0   23   94.00000   48.12124  48.8%     -    0s
     0     0   48.12124    0   20   94.00000   48.12124  48.8%     -    0s
     0     0   48.12124    0   20   94.00000   48.12124  48.8%     -    0s
     0     0   48.12124    0   19   94.00000   48.12124  48.8%     -    0s
     0     0   48.15952    0   17   94.00000   48.15952  48.8%     -    0s
     0     0   48.21865    0   17   94.00000   48.21865  48.7%     -    0s
     0     0   48.21865    0   23   94.00000   48.21865  48.7%     -    0s
     0     0   48.69538    0   20   94.00000   48.69538  48.2%     -    0s
     0     0   48.74556    0   20   94.00000   48.74556  48.1%     -    0s
     0     0   48.85635    0   20   94.00000   48.85635  48.0%     -    0s
     0     0   48.86008    0   20   94.00000   48.86008  48.0%     -    0s
     0     0   48.86008    0   20   94.00000   48.86008  48.0%     -    0s
     0     0   48.86008    0   19   94.00000   48.86008  48.0%     -    0s
     0     0   48.86008    0   20   94.00000   48.86008  48.0%     -    0s
     0     0   48.89528    0   23   94.00000   48.89528  48.0%     -    0s
     0     0   48.89528    0   22   94.00000   48.89528  48.0%     -    0s
     0     0   49.02311    0   21   94.00000   49.02311  47.8%     -    0s
     0     0   49.27786    0   24   94.00000   49.27786  47.6%     -    0s
     0     0   49.32874    0   24   94.00000   49.32874  47.5%     -    0s
     0     0   49.32874    0   24   94.00000   49.32874  47.5%     -    0s
     0     0   49.57614    0   22   94.00000   49.57614  47.3%     -    0s
     0     0   49.57614    0   22   94.00000   49.57614  47.3%     -    0s
     0     0   49.57679    0   21   94.00000   49.57679  47.3%     -    0s
     0     0   49.57679    0   20   94.00000   49.57679  47.3%     -    0s
     0     0   49.57727    0   21   94.00000   49.57727  47.3%     -    0s
     0     0   49.57727    0   22   94.00000   49.57727  47.3%     -    0s
     0     0   49.59104    0   24   94.00000   49.59104  47.2%     -    0s
     0     0   49.59104    0   14   94.00000   49.59104  47.2%     -    0s
     0     1   49.59104    0   14   94.00000   49.59104  47.2%     -    0s
H13095   827                      93.0000000   58.00000  37.6%   2.4    4s
 13137   904   58.00000   39   15   93.00000   58.00000  37.6%   2.4    5s

Cutting planes:
  Gomory: 3
  Projected implied bound: 1
  MIR: 1
  Flow cover: 4

Explored 25278 nodes (139973 simplex iterations) in 5.69 seconds (0.91 work units)
Thread count was 16 (of 16 available processors)

Solution count 10: 93 94 97 ... 131

Optimal solution found (tolerance 1.00e-04)
Best objective 9.300000000000e+01, best bound 9.300000000000e+01, gap 0.0000%
Warning: constraint name "precedence between 0,2 to 0,0 if x_[j,l,h,z,i]=1" has a space
Warning: constraint name "precedence between 0,2 to 0,0 if x_[j,l,h,z,i]=1" has a space
Warning: default constraint names used to write mps file
